r = [
0,7,12,12,9,8,2,6,11,7,3,0
];
p = [
0,16,12,1,5,21,12,16,11,11,14,0
];
e = [
0,10,9,11,2,10,17,17,15,4,17,0
];
d = [
0,108,90,136,112,111,110,140,125,140,133,148
];
d_bar = [
0,116,96,137,115,122,116,148,131,146,140,148
];
w = [
0,1.25,1.5,11,0.666666667,0.909090909,2.833333333,2.125,2.5,0.666666667,2.428571429,0
];
